(set-logic QF_BV)
(define-fun implies ((p Bool) (q Bool)) Bool (or (not p) q))

(declare-const SubseaCS Bool)
(declare-const ProductionSystem Bool)
(declare-const ProductionSystem_1 Bool)
(declare-const SubseaField Bool)
(declare-const SubseaField_1 Bool)
(declare-const XmasTree Bool)
(declare-const unit Bool)
(declare-const Mile Bool)
(declare-const KM Bool)
(declare-const productionSystemType Bool)
(declare-const RateMaxShutinPress Bool)
(declare-const WithPressRestriction Bool)
(declare-const WithPressProtection Bool)
(declare-const subseaField Bool)
(declare-const XmasTree_1 Bool)
(declare-const TreeType Bool)
(declare-const VXT Bool)
(declare-const HXT Bool)
(declare-const Mudline Bool)
(declare-const BoreSize Bool)
(declare-const Three Bool)
(declare-const Four Bool)
(declare-const Five Bool)
(declare-const Seven Bool)
(declare-const Nine Bool)
(declare-const PressureRating Bool)
(declare-const FiveKsi Bool)
(declare-const TenKsi Bool)
(declare-const FifteenKsi Bool)
(declare-const TwentyKsi Bool)
(declare-const InstallType Bool)
(declare-const Jackup Bool)
(declare-const Semisubmersible Bool)
(declare-const Drillship Bool)
(declare-const WellType Bool)
(declare-const ProductionWell Bool)
(declare-const WaterInjectionWell Bool)
(declare-const GasInjectionWell Bool)
(declare-const ServiceType Bool)
(declare-const Sour Bool)
(declare-const Neutral Bool)
(declare-const Sweet Bool)
(declare-const TreeCompletionType Bool)
(declare-const Simple Bool)
(declare-const DiverAssist Bool)
(declare-const Diverless Bool)
(declare-const Guidelineless Bool)
(declare-const corrosiveityDegree Bool)
(declare-const Noncorrosive Bool)
(declare-const Slightylycorrosive Bool)
(declare-const ModeratelytoHighly Bool)
(declare-const Verycorrosive Bool)
(declare-const materialType Bool)
(declare-const AA Bool)
(declare-const BB Bool)
(declare-const CC Bool)
(declare-const DD Bool)
(declare-const EE Bool)
(declare-const FF Bool)
(declare-const HH Bool)
(declare-const systemType Bool)
(declare-const AllHydraulic Bool)
(declare-const detailedType Bool)
(declare-const DirectHydraulic Bool)
(declare-const PilotedHydraulic Bool)
(declare-const SequentialHydrualic Bool)
(declare-const ElectroHydraulic Bool)
(declare-const detailedType_2 Bool)
(declare-const DirectElectroHydraulic Bool)
(declare-const MultipleElectroHydraulic Bool)
(declare-const Autonomous Bool)
(declare-const AllElectric Bool)
(declare-const detailedType_3 Bool)
(declare-const DirectElectric Bool)
(declare-const MultipleElectric Bool)
(declare-const AutonomousElectric Bool)
(declare-const signalType Bool)
(declare-const HydraulicSignal Bool)
(declare-const ElectricSignal Bool)
(declare-const MCS Bool)
(declare-const integrationType Bool)
(declare-const FullyIntegrated Bool)
(declare-const PrimaryInterface Bool)
(declare-const SecondaryInterface Bool)
(declare-const ControlModule Bool)
(declare-const SEM Bool)
(declare-const shockLevel Bool)
(declare-const Q1 Bool)
(declare-const Q2 Bool)
(declare-const IdentificationType Bool)
(declare-const Tag Bool)
(declare-const NamePlate Bool)
(declare-const ImprintedId Bool)
(declare-const SEM_3 Bool)
(declare-const Device Bool)
(declare-const type Bool)
(declare-const Valve Bool)
(declare-const installType Bool)
(declare-const Buildin Bool)
(declare-const Buildon Bool)
(declare-const valveType Bool)
(declare-const AnnulusMasterValve Bool)
(declare-const ManifoldValve Bool)
(declare-const InjectionChokeValve Bool)
(declare-const MethanolInjectionValve Bool)
(declare-const ProductMasterValve Bool)
(declare-const chokeType Bool)
(declare-const Positive Bool)
(declare-const Adjustable Bool)
(declare-const trimType Bool)
(declare-const RotatingDisc Bool)
(declare-const NeedleSeat Bool)
(declare-const PlugCage Bool)
(declare-const SlidingSleeveCage Bool)
(declare-const Multistage Bool)
(declare-const Sensor Bool)
(declare-const sensorType Bool)
(declare-const DownholeMonitor Bool)
(declare-const TemperatureTransducer Bool)
(declare-const SubseaFlowMeter Bool)
(declare-const PositionSensor Bool)
(declare-const SandDetector Bool)
(declare-const ErosionProbs Bool)
(declare-const SEMApp Bool)
(declare-const DeviceController Bool)
(declare-const operationMode Bool)
(declare-const Normal Bool)
(declare-const Maintenance Bool)
(declare-const type_2 Bool)
(declare-const SensorController Bool)
(declare-const scType Bool)
(declare-const DownholeMonitorController Bool)
(declare-const TemperatureTransducerController Bool)
(declare-const SubseaFlowMeterController Bool)
(declare-const PositionSensorController Bool)
(declare-const SandDetectorController Bool)
(declare-const ErosionProbsController Bool)
(declare-const ValveController Bool)
(declare-const vcType Bool)
(declare-const annulusMasterValveController Bool)
(declare-const ManifoldValveController Bool)
(declare-const InjectionChokeValveController Bool)
(declare-const MethanolInjectionValveController Bool)
(declare-const ProductMasterValveController Bool)
(declare-const HIPPS Bool)
(assert
(and SubseaCS(and(= XmasTree SubseaField_1)
(and(implies(or Mile KM)
 unit)
(implies unit(or(and Mile(not KM))
(and(not Mile)
 KM))))
(and(= SubseaField_1 SubseaField)
(= unit SubseaField))
(= SubseaField ProductionSystem_1)
(and(implies(or RateMaxShutinPress WithPressRestriction WithPressProtection)
 productionSystemType)
(implies productionSystemType(or(and RateMaxShutinPress(not WithPressRestriction)
(not WithPressProtection))
(and(not RateMaxShutinPress)
 WithPressRestriction(not WithPressProtection))
(and(not RateMaxShutinPress)
(not WithPressRestriction)
 WithPressProtection))))
(and(implies(or VXT HXT Mudline)
 TreeType)
(implies TreeType(or(and VXT(not HXT)
(not Mudline))
(and(not VXT)
 HXT(not Mudline))
(and(not VXT)
(not HXT)
 Mudline))))
(and(implies(or Three Four Five Seven Nine)
 BoreSize)
(implies BoreSize(or(and Three(not Four)
(not Five)
(not Seven)
(not Nine))
(and(not Three)
 Four(not Five)
(not Seven)
(not Nine))
(and(not Three)
(not Four)
 Five(not Seven)
(not Nine))
(and(not Three)
(not Four)
(not Five)
 Seven(not Nine))
(and(not Three)
(not Four)
(not Five)
(not Seven)
 Nine))))
(and(implies(or FiveKsi TenKsi FifteenKsi TwentyKsi)
 PressureRating)
(implies PressureRating(or(and FiveKsi(not TenKsi)
(not FifteenKsi)
(not TwentyKsi))
(and(not FiveKsi)
 TenKsi(not FifteenKsi)
(not TwentyKsi))
(and(not FiveKsi)
(not TenKsi)
 FifteenKsi(not TwentyKsi))
(and(not FiveKsi)
(not TenKsi)
(not FifteenKsi)
 TwentyKsi))))
(and(implies(or Jackup Semisubmersible Drillship)
 InstallType)
(implies InstallType(or(and Jackup(not Semisubmersible)
(not Drillship))
(and(not Jackup)
 Semisubmersible(not Drillship))
(and(not Jackup)
(not Semisubmersible)
 Drillship))))
(and(implies(or ProductionWell WaterInjectionWell GasInjectionWell)
 WellType)
(implies WellType(or(and ProductionWell(not WaterInjectionWell)
(not GasInjectionWell))
(and(not ProductionWell)
 WaterInjectionWell(not GasInjectionWell))
(and(not ProductionWell)
(not WaterInjectionWell)
 GasInjectionWell))))
(and(implies(or Sour Neutral Sweet)
 ServiceType)
(implies ServiceType(or(and Sour(not Neutral)
(not Sweet))
(and(not Sour)
 Neutral(not Sweet))
(and(not Sour)
(not Neutral)
 Sweet))))
(and(implies(or Simple DiverAssist Diverless Guidelineless)
 TreeCompletionType)
(implies TreeCompletionType(or(and Simple(not DiverAssist)
(not Diverless)
(not Guidelineless))
(and(not Simple)
 DiverAssist(not Diverless)
(not Guidelineless))
(and(not Simple)
(not DiverAssist)
 Diverless(not Guidelineless))
(and(not Simple)
(not DiverAssist)
(not Diverless)
 Guidelineless))))
(and(implies(or Noncorrosive Slightylycorrosive ModeratelytoHighly Verycorrosive)
 corrosiveityDegree)
(implies corrosiveityDegree(or(and Noncorrosive(not Slightylycorrosive)
(not ModeratelytoHighly)
(not Verycorrosive))
(and(not Noncorrosive)
 Slightylycorrosive(not ModeratelytoHighly)
(not Verycorrosive))
(and(not Noncorrosive)
(not Slightylycorrosive)
 ModeratelytoHighly(not Verycorrosive))
(and(not Noncorrosive)
(not Slightylycorrosive)
(not ModeratelytoHighly)
 Verycorrosive))))
(and(implies(or AA BB CC DD EE FF HH)
 materialType)
(implies materialType(or(and AA(not BB)
(not CC)
(not DD)
(not EE)
(not FF)
(not HH))
(and(not AA)
 BB(not CC)
(not DD)
(not EE)
(not FF)
(not HH))
(and(not AA)
(not BB)
 CC(not DD)
(not EE)
(not FF)
(not HH))
(and(not AA)
(not BB)
(not CC)
 DD(not EE)
(not FF)
(not HH))
(and(not AA)
(not BB)
(not CC)
(not DD)
 EE(not FF)
(not HH))
(and(not AA)
(not BB)
(not CC)
(not DD)
(not EE)
 FF(not HH))
(and(not AA)
(not BB)
(not CC)
(not DD)
(not EE)
(not FF)
 HH))))
(and(= TreeType XmasTree_1)
(= BoreSize XmasTree_1)
(= PressureRating XmasTree_1)
(= InstallType XmasTree_1)
(= WellType XmasTree_1)
(= ServiceType XmasTree_1)
(= TreeCompletionType XmasTree_1)
(= corrosiveityDegree XmasTree_1)
(= materialType XmasTree_1))
(implies XmasTree_1 subseaField)
(and(= ProductionSystem_1 ProductionSystem)
(= productionSystemType ProductionSystem)
(= subseaField ProductionSystem))
(and(implies(or DirectHydraulic PilotedHydraulic SequentialHydrualic)
 detailedType)
(implies detailedType(or(and DirectHydraulic(not PilotedHydraulic)
(not SequentialHydrualic))
(and(not DirectHydraulic)
 PilotedHydraulic(not SequentialHydrualic))
(and(not DirectHydraulic)
(not PilotedHydraulic)
 SequentialHydrualic))))
(= detailedType AllHydraulic)
(and(implies(or DirectElectroHydraulic MultipleElectroHydraulic Autonomous)
 detailedType_2)
(implies detailedType_2(or(and DirectElectroHydraulic(not MultipleElectroHydraulic)
(not Autonomous))
(and(not DirectElectroHydraulic)
 MultipleElectroHydraulic(not Autonomous))
(and(not DirectElectroHydraulic)
(not MultipleElectroHydraulic)
 Autonomous))))
(= detailedType_2 ElectroHydraulic)
(and(implies(or DirectElectric MultipleElectric AutonomousElectric)
 detailedType_3)
(implies detailedType_3(or(and DirectElectric(not MultipleElectric)
(not AutonomousElectric))
(and(not DirectElectric)
 MultipleElectric(not AutonomousElectric))
(and(not DirectElectric)
(not MultipleElectric)
 AutonomousElectric))))
(= detailedType_3 AllElectric)
(and(implies(or AllHydraulic ElectroHydraulic AllElectric)
 systemType)
(implies systemType(or(and AllHydraulic(not ElectroHydraulic)
(not AllElectric))
(and(not AllHydraulic)
 ElectroHydraulic(not AllElectric))
(and(not AllHydraulic)
(not ElectroHydraulic)
 AllElectric))))
(and(implies(or HydraulicSignal ElectricSignal)
 signalType)
(implies signalType(or(and HydraulicSignal(not ElectricSignal))
(and(not HydraulicSignal)
 ElectricSignal))))
(and(implies(or FullyIntegrated PrimaryInterface SecondaryInterface)
 integrationType)
(implies integrationType(or(and FullyIntegrated(not PrimaryInterface)
(not SecondaryInterface))
(and(not FullyIntegrated)
 PrimaryInterface(not SecondaryInterface))
(and(not FullyIntegrated)
(not PrimaryInterface)
 SecondaryInterface))))
(= integrationType MCS)
(and(implies(or Q1 Q2)
 shockLevel)
(implies shockLevel(or(and Q1(not Q2))
(and(not Q1)
 Q2))))
(and(implies(or Tag NamePlate ImprintedId)
 IdentificationType)
(implies IdentificationType(or(and Tag(not NamePlate)
(not ImprintedId))
(and(not Tag)
 NamePlate(not ImprintedId))
(and(not Tag)
(not NamePlate)
 ImprintedId))))
(and(implies(or Buildin Buildon)
 installType)
(implies installType(or(and Buildin(not Buildon))
(and(not Buildin)
 Buildon))))
(and(implies(or Positive Adjustable)
 chokeType)
(implies chokeType(or(and Positive(not Adjustable))
(and(not Positive)
 Adjustable))))
(and(implies(or RotatingDisc NeedleSeat PlugCage SlidingSleeveCage Multistage)
 trimType)
(implies trimType(or(and RotatingDisc(not NeedleSeat)
(not PlugCage)
(not SlidingSleeveCage)
(not Multistage))
(and(not RotatingDisc)
 NeedleSeat(not PlugCage)
(not SlidingSleeveCage)
(not Multistage))
(and(not RotatingDisc)
(not NeedleSeat)
 PlugCage(not SlidingSleeveCage)
(not Multistage))
(and(not RotatingDisc)
(not NeedleSeat)
(not PlugCage)
 SlidingSleeveCage(not Multistage))
(and(not RotatingDisc)
(not NeedleSeat)
(not PlugCage)
(not SlidingSleeveCage)
 Multistage))))
(and(= chokeType ProductMasterValve)
(= trimType ProductMasterValve))
(and(implies(or AnnulusMasterValve ManifoldValve InjectionChokeValve MethanolInjectionValve ProductMasterValve)
 valveType)
(implies valveType(or(and AnnulusMasterValve(not ManifoldValve)
(not InjectionChokeValve)
(not MethanolInjectionValve)
(not ProductMasterValve))
(and(not AnnulusMasterValve)
 ManifoldValve(not InjectionChokeValve)
(not MethanolInjectionValve)
(not ProductMasterValve))
(and(not AnnulusMasterValve)
(not ManifoldValve)
 InjectionChokeValve(not MethanolInjectionValve)
(not ProductMasterValve))
(and(not AnnulusMasterValve)
(not ManifoldValve)
(not InjectionChokeValve)
 MethanolInjectionValve(not ProductMasterValve))
(and(not AnnulusMasterValve)
(not ManifoldValve)
(not InjectionChokeValve)
(not MethanolInjectionValve)
 ProductMasterValve))))
(and(= installType Valve)
(= valveType Valve))
(and(implies(or DownholeMonitor TemperatureTransducer SubseaFlowMeter PositionSensor SandDetector ErosionProbs)
 sensorType)
(implies sensorType(or(and DownholeMonitor(not TemperatureTransducer)
(not SubseaFlowMeter)
(not PositionSensor)
(not SandDetector)
(not ErosionProbs))
(and(not DownholeMonitor)
 TemperatureTransducer(not SubseaFlowMeter)
(not PositionSensor)
(not SandDetector)
(not ErosionProbs))
(and(not DownholeMonitor)
(not TemperatureTransducer)
 SubseaFlowMeter(not PositionSensor)
(not SandDetector)
(not ErosionProbs))
(and(not DownholeMonitor)
(not TemperatureTransducer)
(not SubseaFlowMeter)
 PositionSensor(not SandDetector)
(not ErosionProbs))
(and(not DownholeMonitor)
(not TemperatureTransducer)
(not SubseaFlowMeter)
(not PositionSensor)
 SandDetector(not ErosionProbs))
(and(not DownholeMonitor)
(not TemperatureTransducer)
(not SubseaFlowMeter)
(not PositionSensor)
(not SandDetector)
 ErosionProbs))))
(= sensorType Sensor)
(and(implies(or Valve Sensor)
 type)
(implies type(or(and Valve(not Sensor))
(and(not Valve)
 Sensor))))
(= type Device)
(= Device SEM_3)
(and(= shockLevel SEM)
(= IdentificationType SEM)
(= SEM_3 SEM))
(and(implies(or Normal Maintenance)
 operationMode)
(implies operationMode(or(and Normal(not Maintenance))
(and(not Normal)
 Maintenance))))
(and(implies(or DownholeMonitorController TemperatureTransducerController SubseaFlowMeterController PositionSensorController SandDetectorController ErosionProbsController)
 scType)
(implies scType(or(and DownholeMonitorController(not TemperatureTransducerController)
(not SubseaFlowMeterController)
(not PositionSensorController)
(not SandDetectorController)
(not ErosionProbsController))
(and(not DownholeMonitorController)
 TemperatureTransducerController(not SubseaFlowMeterController)
(not PositionSensorController)
(not SandDetectorController)
(not ErosionProbsController))
(and(not DownholeMonitorController)
(not TemperatureTransducerController)
 SubseaFlowMeterController(not PositionSensorController)
(not SandDetectorController)
(not ErosionProbsController))
(and(not DownholeMonitorController)
(not TemperatureTransducerController)
(not SubseaFlowMeterController)
 PositionSensorController(not SandDetectorController)
(not ErosionProbsController))
(and(not DownholeMonitorController)
(not TemperatureTransducerController)
(not SubseaFlowMeterController)
(not PositionSensorController)
 SandDetectorController(not ErosionProbsController))
(and(not DownholeMonitorController)
(not TemperatureTransducerController)
(not SubseaFlowMeterController)
(not PositionSensorController)
(not SandDetectorController)
 ErosionProbsController))))
(= scType SensorController)
(and(implies(or annulusMasterValveController ManifoldValveController InjectionChokeValveController MethanolInjectionValveController ProductMasterValveController)
 vcType)
(implies vcType(or(and annulusMasterValveController(not ManifoldValveController)
(not InjectionChokeValveController)
(not MethanolInjectionValveController)
(not ProductMasterValveController))
(and(not annulusMasterValveController)
 ManifoldValveController(not InjectionChokeValveController)
(not MethanolInjectionValveController)
(not ProductMasterValveController))
(and(not annulusMasterValveController)
(not ManifoldValveController)
 InjectionChokeValveController(not MethanolInjectionValveController)
(not ProductMasterValveController))
(and(not annulusMasterValveController)
(not ManifoldValveController)
(not InjectionChokeValveController)
 MethanolInjectionValveController(not ProductMasterValveController))
(and(not annulusMasterValveController)
(not ManifoldValveController)
(not InjectionChokeValveController)
(not MethanolInjectionValveController)
 ProductMasterValveController))))
(= vcType ValveController)
(and(implies(or SensorController ValveController)
 type_2)
(implies type_2(or(and SensorController(not ValveController))
(and(not SensorController)
 ValveController))))
(and(= operationMode DeviceController)
(= type_2 DeviceController))
(implies DeviceController SEMApp)
(and(= SEM ControlModule)
(= SEMApp ControlModule))
(and(= ProductionSystem SubseaCS)
(= systemType SubseaCS)
(= signalType SubseaCS)
(= MCS SubseaCS)
(= ControlModule SubseaCS))
(implies HIPPS SubseaCS))
(and(or(not InjectionChokeValve)
 InjectionChokeValveController)
(or(not ManifoldValve)
 ManifoldValveController)
(or(not AnnulusMasterValve)
 annulusMasterValveController)
(or(not SubseaFlowMeter)
 SubseaFlowMeterController)
(or(not PositionSensor)
 PositionSensorController)
(or(not AllElectric)
 ElectricSignal)
(or(not DownholeMonitor)
 DownholeMonitorController)
(or(not TemperatureTransducer)
 TemperatureTransducerController)
(or(not AllHydraulic)
 HydraulicSignal)
(or(not ProductMasterValve)
 ProductMasterValveController)
(or(not SandDetector)
 SandDetectorController)
(or(not ErosionProbs)
 ErosionProbsController)
(or(not MethanolInjectionValve)
 MethanolInjectionValveController)))
)